n_res = 4;
rcap = [23, 21, 75, 105];
rtype = [1, 1, 2, 2];
n_tasks = 16;
modes = [ {1}, {2}, {3}, {4}, {5}, {6}, {7}, {8}, {9}, {10}, {11}, {12}, {13}, {14}, {15}, {16} ];
succ = [ {7, 8, 9}, {6, 15}, {4, 9, 12}, {5, 7}, {10, 13}, {7, 10, 12}, {14, 16}, {11, 12, 16}, {10, 11}, {16}, {13, 14}, {14}, {15}, {}, {}, {} ];
n_opt = 16;
dur = [1, 3, 8, 2, 10, 1, 5, 9, 8, 7, 9, 7, 6, 3, 2, 9];
rreq = [|  7, 10,  6,  5,  5,  9,  5,  6,  3,  7, 10,  8,  4, 10,  2,  8
        |  2,  4,  8,  7,  5,  3,  6,  4,  7, 10,  3,  3,  6,  2,  6,  6
        |  9,  8,  7,  2,  9,  4,  4,  3,  5,  2,  4,  8,  1,  1,  3,  5
        |  7,  6,  7,  5,  5,  8,  6,  8,  9,  8,  7,  6,  4,  4,  7,  8 |];
